12
911 930
615 299
675 25
806 11
569 737
396 674
293 841
621 871
591 19
850 126
58 132
97 750
67 361
57 529
668 659
377 916
380 355
652 54
997 416
410 110
322 61
686 261
203 320
727 338
446 325
206 540
100 577
267 274
469 698
132 935
961 356
52 273
940 422
795 760
260 627
511 452
530 365
71 527
371 564
176 737
266 427
86 250
20 923
745 123
728 497
345 61
985 771
47 515
689 753
721 612
955 70
650 16
885 677
804 508
857 856
154 48
454 267
399 221
640 175
125 316
48 371
795 706
585 757
894 319
849 942
410 918
855 596
269 559
712 945
560 416
352 312
611 730
615 320
932 959
977 328
916 50
714 506
230 159
773 365
644 777
319 883
176 210
844 561
916 869
77 205
439 631
13 521
565 276
967 165
265 558
142 75
690 1
688 468
495 98
912 680
111 445
414 331
577 133
750 219
820 816